c --- [ banner ] -------------------------------------------------------------
c 
c CaDiCaL Radically Simplified CDCL SAT Solver
c Copyright (c) 2016-2021 A. Biere, M. Fleury, N. Froleyks
c 
c Version 1.5.2 ca2dd1661408261d5d9922f656c807ded88978da
c g++ (Ubuntu 7.5.0-3ubuntu1~18.04) 7.5.0 -Wall -Wextra -O3 -DNDEBUG
c Sat Feb 26 22:54:12 EST 2022 Linux fac-vanhoeve01 5.4.0-99-generic x86_64
c 
c --- [ parsing input ] ------------------------------------------------------
c 
c reading DIMACS file from '<stdin>' (use '-h' for a list of common options)
c found 'p cnf 2692 7976' header
c parsed 7976 clauses in 0.00 seconds process time
c disconnecting from '<stdin>'
c after reading 106558 bytes 0.1 MB
c 
c --- [ options ] ------------------------------------------------------------
c 
c all options are set to their default value
c 
c --- [ solving ] ------------------------------------------------------------
c 
c time measured in process time since initialization
c 
c  seconds  reductions  redundant irredundant
c         MB    restarts       trail    variables
c          level   conflicts       glue      remaining
c 
c *  0.00  5  0 0   0    0    0  0% 0 7974 2618 97%
c {  0.01  5  0 0   0    0    0  0% 0 7974 2618 97%
c -  0.02  5 87 1  43  300  277 75% 9 7902 2618 97%
c -  0.06  5 47 2 109  902  701 84% 10 7902 2618 97%
c }  0.07  5 45 2 117 1000  794 84% 10 7902 2618 97%
c [  0.07  5  0 2 117 1000  794  0% 0 7902 2618 97%
c O  0.07  5 35 2 117 1002  796 85% 12 7902 2618 97%
c -  0.11  6 16 3 117 1802  864 93% 14 7902 2618 97%
c ]  0.18  6 17 3 118 3001 1502 93% 14 7902 2618 97%
c {  0.18  6 45 3 118 3001 1502 84% 10 7902 2618 97%
c -  0.18  6 45 4 119 3003 1033 84% 10 7902 2618 97%
c F  0.18  6 45 4 119 3004 1034 84% 10 7902 2618 97%
c s  0.19  6 41 4 129 3214 1221 82% 10 7902 2618 97%
c e  0.22  6 41 4 129 3214   47 82% 10 5688 885 33%
c s  0.22  6 41 4 129 3214   44 82% 10 5688 885 33%
c -  0.28  6 29 5 182 4503 1210 85% 10 5688 885 33%
c p  0.30  6 28 5 224 5000 1687 86% 10 5688 885 33%
c #  0.34  6 26 5 284 6008 2622 86% 10 5688 885 33%
c -  0.36  6 26 6 289 6305 2159 86% 10 5688 885 33%
c }  0.38  6 25 6 293 7002 2809 86% 10 5688 885 33%
c 
c  seconds  reductions  redundant   irredundant
c         MB    restarts       trail      variables
c          level   conflicts        glue      remaining
c 
c [  0.38  6 17 6 293 7002 2809 283% 14 5688 885 33%
c -  0.45  6 20 7 294 8406 2713 199% 15 5688 885 33%
c I  0.53  6 21 7 295 10009 4092 161% 16 5688 885 33%
c -  0.57  7 23 8 296 10807 3358 151% 16 5688 885 33%
c -  0.71  7 26 9 298 13508 3544 130% 18 5688 885 33%
c s  0.74  7 26 9 298 13951 3910 128% 18 5688 885 33%
c w  0.75  7 26 9 298 13951 3908 128% 18 5688 885 33%
c s  0.75  7 26 9 298 13951 3908 128% 18 5688 885 33%
c ^  0.75  7 26 9 298 13951 3908 128% 18 5688 885 33%
c p  0.82  7 26 9 298 15001 4739 124% 18 5688 885 33%
c ]  0.82  7 26 9 298 15002 4740 124% 18 5688 885 33%
c {  0.82  7 25 9 298 15002 4740 86% 10 5688 885 33%
c B  0.82  7 25 9 298 15010 4748 86% 10 5688 885 33%
c -  0.89  7 23 10 362 16509 3948 85% 10 5688 885 33%
c -  1.04  6 22 11 489 19809 4469 85% 10 5688 885 33%
c W  1.10  6 22 11 540 21012 5560 84% 10 5688 885 33%
c -  1.22  7 21 12 687 23409 5097 85% 10 5688 885 33%
c -  1.39  6 21 13 881 27309 5652 84% 10 5688 885 33%
c F  1.43  6 21 13 913 28013 6319 84% 10 5688 885 33%
c p  1.51  6 21 13 985 30002 8074 83% 10 5688 885 33%
c 
c  seconds  reductions    redundant  irredundant
c         MB     restarts        trail     variables
c          level     conflicts       glue      remaining
c 
c s  1.52  6 21 13 992 30057 8110 83% 10 5688 885 33%
c s  1.55  6 21 13 992 30057 8109 83% 10 5688 885 33%
c ^  1.55  6 21 13 992 30057 8109 83% 10 5688 885 33%
c }  1.60  6 21 13 1079 31003 8992 84% 10 5688 885 33%
c [  1.60  6 26 13 1079 31003 8992 124% 18 5688 885 33%
c -  1.63  7 26 14 1079 31512 6178 122% 17 5688 885 33%
c -  1.88  7 25 15 1082 36012 6642 112% 16 5688 885 33%
c B  1.88  7 25 15 1082 36015 6645 112% 16 5688 885 33%
c -  2.16  8 27 16 1085 40812 6865 106% 18 5688 885 33%
c W  2.44  8 28 16 1086 45018 10611 103% 19 5688 885 33%
c -  2.51  8 28 17 1087 45913 7259 102% 19 5688 885 33%
c p  2.77  8 28 17 1087 50002 10617 100% 19 5688 885 33%
c -  2.86  8 28 18 1087 51313 7429 100% 19 5688 885 33%
c s  2.88  8 28 18 1087 51532 7611 100% 19 5688 885 33%
c w  2.89  8 28 18 1087 51532 7609 100% 19 5688 885 33%
c s  2.90  8 28 18 1087 51532 7608 100% 19 5688 885 33%
c ^  2.91  8 28 18 1087 51532 7608 100% 19 5688 885 33%
c O  3.11  8 28 18 1088 55020 10312 98% 19 5688 885 33%
c -  3.22  7 28 19 1090 57014 7251 98% 19 5688 885 33%
c ]  3.55  7 26 19 1094 63004 11192 96% 18 5688 885 33%
c 
c  seconds  reductions      redundant  irredundant
c         MB     restarts          trail     variables
c          level      conflicts        glue      remaining
c 
c {  3.55  7 21 19 1094 63004 11192 84% 10 5688 885 33%
c -  3.56  8 21 20 1094 63014 6743 84% 10 5688 885 33%
c B  3.71  8 20 20 1315 66021 9504 84% 10 5688 885 33%
c -  3.89  9 20 21 1626 69318 8481 84% 10 5688 885 33%
c p  4.18  9 20 21 1876 75002 13541 84% 10 5688 885 33%
c -  4.23  9 20 22 1937 75918 9657 84% 10 5688 885 33%
c W  4.37  9 20 22 2087 78023 11607 84% 10 5688 885 33%
c s  4.40  9 20 22 2106 78374 11887 84% 10 5688 885 33%
c s  4.44  9 20 22 2106 78374 11882 84% 10 5688 885 33%
c ^  4.44  9 20 22 2106 78374 11882 84% 10 5688 885 33%
c -  4.66  9 20 23 2247 82818 10481 83% 10 5688 885 33%
c -  5.01  9 19 24 2566 90018 10823 83% 10 5688 885 33%
c #  5.06  9 19 24 2582 91024 11697 83% 10 5688 885 33%
c -  5.39 10 19 25 2759 97518 11799 83% 10 5688 885 33%
c p  5.79 10 19 25 3221 105004 18515 83% 10 5688 885 33%
c B  5.80 10 19 25 3223 105025 18532 84% 10 5688 885 33%
c -  5.82 10 19 26 3243 105318 12389 83% 10 5688 885 33%
c s  6.12 10 19 26 3521 110587 17113 83% 10 5688 885 33%
c w  6.15 10 19 26 3521 110587 17111 83% 10 5688 885 33%
c e  6.16 10 19 26 3521 110587 4038 83% 10 8124 567 21%
c 
c  seconds  reductions      redundant  irredundant
c         MB     restarts          trail     variables
c          level      conflicts        glue      remaining
c 
c s  6.18 10 19 26 3521 110587 4036 83% 10 8124 567 21%
c ^  6.18 10 19 26 3521 110587 4036 83% 10 8124 567 21%
c -  6.30  8 19 27 3673 113418 5118 78% 10 8124 567 21%
c W  6.67  8 19 27 4046 120026 11215 83% 10 8124 567 21%
c -  6.78  9 19 28 4170 121819 10322 83% 10 8124 567 21%
c }  7.04  9 19 28 4396 127004 15043 83% 10 8124 567 21%
c [  7.04  9 26 28 4396 127004 15043 150% 18 8124 567 21%
c -  7.21  9 26 29 4396 130519 12487 144% 18 8124 567 21%
c B  7.49  9 25 29 4401 136027 17268 136% 18 8124 567 21%
c -  7.71  9 26 30 4403 139520 13203 132% 18 8124 567 21%
c p  7.75  9 26 30 4403 140004 13647 132% 18 8124 567 21%
c -  8.28 10 27 31 4404 148820 12973 124% 18 8124 567 21%
c W  8.59 10 27 31 4405 153030 16388 121% 18 8124 567 21%
c -  8.94 10 29 32 4405 158422 13432 117% 19 8124 567 21%
c s  9.35 10 30 32 4405 164358 18903 114% 19 8124 567 21%
c w  9.38 10 30 32 4405 164358 18900 114% 19 8124 567 21%
c s  9.41 10 30 32 4405 164358 18896 114% 19 8124 567 21%
c -  9.72 11 30 33 4406 168322 14884 112% 20 8124 567 21%
c I  9.91 11 30 33 4408 171034 17225 111% 20 8124 567 21%
c - 10.43 11 30 34 4412 178522 14523 109% 19 8124 567 21%
c 
c  seconds  reductions       redundant   irredundant
c         MB     restarts           trail      variables
c          level      conflicts          glue      remaining
c 
c p 10.55 11 29 34 4412 180005 15808 108% 19 8124 567 21%
c - 11.18 10 28 35 4419 189023 13986 105% 19 8124 567 21%
c B 11.26 10 28 35 4419 190035 14857 105% 19 8124 567 21%
c - 11.87 11 28 36 4420 199823 14806 103% 19 8124 567 21%
c W 12.56 11 28 36 4427 210036 23437 101% 19 8124 567 21%
c - 12.64 11 28 37 4427 210923 15036 100% 19 8124 567 21%
c - 13.35 11 27 38 4434 222324 13948 99% 18 8124 567 21%
c p 13.52 11 26 38 4434 225005 15947 98% 18 8124 567 21%
c O 13.91 11 26 38 4435 231038 20208 97% 18 8124 567 21%
c - 14.09 11 26 39 4435 234026 14253 97% 18 8124 567 21%
c - 14.85 11 24 40 4436 246026 14215 95% 17 8124 567 21%
c B 15.26 11 24 40 4437 253041 19043 94% 17 8124 567 21%
c ] 15.36 11 24 40 4437 255005 20819 94% 17 8124 567 21%
c { 15.37 11 19 40 4437 255005 20819 83% 10 8124 567 21%
c - 15.58 12 19 41 4725 258326 16229 83% 10 8124 567 21%
c - 16.27 12 19 42 5321 270926 18094 82% 10 8124 567 21%
c p 16.50 12 19 42 5562 275006 21741 82% 10 8124 567 21%
c F 16.57 12 19 42 5659 276043 22695 82% 10 8124 567 21%
c - 17.09 12 19 43 6243 283827 20130 83% 10 8124 567 21%
c - 17.90 14 18 44 6881 297031 20778 82% 10 8124 567 21%
c 
c  seconds  reductions       redundant  irredundant
c         MB     restarts           trail     variables
c          level      conflicts         glue      remaining
c 
c B 18.07 14 18 44 6959 300044 23398 82% 10 8124 567 21%
c - 18.77 14 18 45 7593 310531 21890 83% 10 8124 567 21%
c - 19.75 14 18 46 8671 324331 23162 82% 10 8124 567 21%
c W 19.89 14 18 46 8746 325046 23840 82% 10 8124 567 21%
c p 20.22 14 18 46 9046 330008 28218 82% 10 8124 567 21%
c - 20.86 13 18 47 9654 338433 24156 82% 10 8124 567 21%
c # 21.82 13 19 47 10664 351047 35477 82% 10 8124 567 21%
c - 21.95 13 18 48 10673 352834 24586 82% 10 8124 567 21%
c - 23.12 13 18 49 11951 367537 25686 81% 10 8124 567 21%
c B 23.93 13 18 49 12840 378048 35013 81% 10 8124 567 21%
c - 24.37 13 19 50 13281 382537 26312 81% 10 8124 567 21%
c p 25.03 13 19 50 14042 390010 33145 81% 10 8124 567 21%
c - 25.73 13 18 51 14509 397837 26808 81% 10 8124 567 21%
c W 26.51 13 18 51 15195 406051 33898 81% 10 8124 567 21%
c - 27.11 13 18 52 15761 413437 27599 81% 10 8124 567 21%
c - 28.38 14 18 53 16753 429339 28488 81% 10 8124 567 21%
c F 28.85 14 18 53 17354 435055 33699 81% 10 8124 567 21%
c - 29.72 14 18 54 18106 445540 29187 81% 10 8124 567 21%
c p 30.50 14 18 54 18832 455010 37474 81% 10 8124 566 21%
c s 30.57 14 18 54 18832 455010 37366 81% 10 8124 566 21%
c 
c  seconds  reductions        redundant  irredundant
c         MB      restarts           trail     variables
c          level       conflicts         glue      remaining
c 
c v 30.61 14 18 54 18832 455010 37366 81% 10 8119 566 21%
c w 30.67 14 18 54 18832 455010 37343 81% 10 8119 566 21%
c s 30.74 14 18 54 18832 455010 37330 81% 10 8114 566 21%
c - 31.38 13 18 55 19328 462040 29924 81% 10 8114 566 21%
c B 31.59 13 18 55 19451 465057 32660 81% 10 8114 566 21%
c - 32.71 16 18 56 20562 478840 30529 81% 10 8114 566 21%
c - 34.19 14 18 57 21774 495940 31692 81% 10 8114 566 21%
c W 34.33 14 18 57 21783 496058 31797 81% 10 8114 566 21%
c } 35.74 14 18 57 23216 511005 45407 81% 10 8114 566 21%
c [ 35.74 14 24 57 23216 511005 45407 94% 17 8114 566 21%
c - 35.93 14 24 58 23216 513340 32831 94% 17 8114 566 21%
c s 36.77 15 25 58 23216 524159 42760 93% 17 8114 566 21%
c s 36.94 15 25 58 23216 524159 42748 93% 17 8114 566 21%
c p 37.07 15 26 58 23216 525010 43602 93% 17 8114 565 21%
c W 37.50 17 26 58 23216 528059 46356 93% 18 8109 565 21%
c - 37.78 16 26 59 23216 531041 32578 93% 18 8109 565 21%
c - 39.42 14 27 60 23223 549042 30060 91% 18 8109 565 21%
c I 40.62 14 27 60 23229 561062 40157 91% 19 8109 565 21%
c - 41.26 18 27 61 23231 567342 29989 91% 19 8109 565 21%
c - 42.93 21 27 62 23238 585942 29265 90% 19 8109 565 21%
c 
c  seconds  reductions        redundant  irredundant
c         MB      restarts           trail     variables
c          level       conflicts         glue      remaining
c 
c B 43.70 21 27 62 23245 595065 36454 90% 19 8109 565 21%
c p 44.12 21 28 62 23246 600012 41061 90% 20 8109 565 21%
c s 44.27 21 28 62 23246 600990 41740 90% 20 8104 565 21%
c w 44.33 21 28 62 23246 600990 41733 90% 20 8104 565 21%
c s 44.41 21 28 62 23246 600990 41727 90% 20 8104 565 21%
c - 44.73 21 28 63 23246 604842 29870 90% 20 8104 565 21%
c - 46.28 21 27 64 23248 624044 28335 89% 20 8104 565 21%
c ] 46.85 21 27 64 23253 630065 33020 89% 20 8104 565 21%
c 1 46.85 21 27 64 23253 630065 33020 89% 20 8104 565 21%
c 
c --- [ result ] -------------------------------------------------------------
c 
s SATISFIABLE
v -1 -2 -3 -4 -5 -6 -7 -8 -9 -10 -11 -12 -13 -14 -15 16 -17 18 -19 -20 21 -22
v -23 24 -25 -26 -27 -28 -29 -30 -31 -32 -33 -34 -35 -36 -37 -38 -39 -40 -41
v -42 -43 -44 -45 -46 47 -48 -49 -50 -51 -52 -53 -54 -55 56 -57 -58 -59 -60
v -61 -62 -63 -64 -65 -66 -67 -68 69 70 71 72 73 -74 -75 -76 77 -78 -79 -80 81
v -82 -83 -84 85 -86 -87 -88 89 -90 -91 -92 -93 -94 -95 96 97 -98 -99 100 -101
v -102 103 -104 -105 -106 -107 -108 -109 -110 111 -112 -113 -114 -115 -116
v -117 -118 -119 -120 -121 -122 -123 -124 -125 -126 -127 -128 -129 -130 131
v -132 -133 -134 -135 -136 -137 -138 -139 140 141 -142 -143 -144 -145 -146
v -147 148 -149 -150 -151 -152 153 -154 -155 -156 -157 158 -159 -160 161 162
v -163 164 -165 -166 167 -168 -169 -170 -171 -172 173 -174 -175 -176 177 -178
v 179 -180 -181 -182 183 -184 -185 -186 -187 -188 -189 -190 -191 -192 -193
v -194 -195 -196 -197 198 -199 -200 201 -202 -203 -204 -205 -206 -207 -208
v -209 210 -211 -212 -213 -214 -215 -216 -217 -218 -219 -220 -221 -222 -223
v -224 225 -226 -227 -228 -229 -230 231 232 233 234 -235 -236 -237 -238 -239
v 240 -241 -242 -243 -244 -245 -246 -247 -248 -249 -250 -251 252 253 254 -255
v 256 -257 258 259 260 -261 262 263 -264 265 -266 267 -268 269 -270 -271 -272
v 273 274 275 -276 -277 -278 -279 280 -281 -282 -283 -284 285 286 -287 -288
v -289 -290 291 292 -293 -294 -295 -296 -297 298 299 300 301 -302 -303 304
v -305 -306 -307 308 -309 310 -311 -312 -313 -314 315 -316 -317 318 319 -320
v -321 -322 323 -324 -325 326 327 328 329 330 331 332 333 334 335 336 337 338
v 339 340 341 342 343 344 345 346 347 348 349 350 351 352 353 354 355 356 357
v 358 359 360 361 362 363 364 365 366 367 368 369 370 371 372 373 374 375 376
v 377 378 379 380 381 382 383 384 385 386 387 388 389 390 391 392 393 394 395
v 396 397 398 -399 -400 401 402 403 404 405 406 407 408 409 410 411 412 413
v 414 415 416 417 418 419 420 421 422 423 424 425 426 427 428 429 430 431 432
v 433 434 435 436 437 438 439 440 441 442 443 444 445 446 447 448 449 450 451
v 452 453 454 455 456 457 458 459 460 461 462 463 464 465 466 467 468 469 470
v 471 472 -473 -474 -475 476 477 478 479 480 481 482 483 484 485 486 487 488
v 489 490 491 492 493 494 495 496 497 498 499 500 501 502 503 504 505 506 507
v 508 509 510 511 512 513 514 515 516 517 518 519 520 521 522 523 524 525 526
v 527 528 529 530 531 532 533 534 535 536 537 538 539 540 541 542 543 544 545
v 546 -547 -548 -549 -550 -551 552 553 554 555 556 557 558 559 560 561 562 563
v 564 565 566 567 568 569 570 571 572 573 574 575 576 577 578 579 580 581 582
v 583 584 585 586 587 588 589 590 591 592 593 594 595 596 597 598 599 600 601
v 602 603 604 605 606 607 608 609 610 611 612 613 614 615 616 617 618 619 620
v -621 -622 -623 -624 -625 -626 -627 628 629 630 631 632 633 634 635 636 637
v 638 639 640 641 642 643 644 645 646 647 648 649 650 651 652 653 654 655 656
v 657 658 659 660 661 662 663 664 665 666 667 668 669 670 671 672 673 674 675
v 676 677 678 679 680 681 682 683 684 685 686 687 688 689 690 691 692 693 694
v -695 -696 -697 -698 -699 -700 -701 -702 703 704 705 706 707 708 709 710 711
v 712 713 714 715 716 717 718 719 720 721 722 723 724 725 726 727 728 729 730
v 731 732 733 734 735 736 737 738 739 740 741 742 743 744 745 746 747 748 749
v 750 751 752 753 754 755 756 757 758 759 760 761 762 763 764 765 766 767 768
v -769 -770 -771 -772 -773 -774 -775 -776 -777 778 779 780 781 782 783 784 785
v 786 787 788 789 790 791 792 793 794 795 796 797 798 799 800 801 802 803 804
v 805 806 807 808 809 810 811 812 813 814 815 816 817 818 819 820 821 822 823
v 824 825 826 827 828 829 830 831 832 833 834 835 836 837 838 839 840 841 842
v -843 -844 -845 -846 -847 -848 -849 -850 -851 -852 -853 854 855 856 857 858
v 859 860 861 862 863 864 865 866 867 868 869 870 871 872 873 874 875 876 877
v 878 879 880 881 882 883 884 885 886 887 888 889 890 891 892 893 894 895 896
v 897 898 899 900 901 902 903 904 905 906 907 908 909 910 911 912 913 914 915
v 916 -917 -918 -919 -920 -921 -922 -923 -924 -925 -926 -927 -928 929 930 931
v 932 933 934 935 936 937 938 939 940 941 942 943 944 945 946 947 948 949 950
v 951 952 953 954 955 956 957 958 959 960 961 962 963 964 965 966 967 968 969
v 970 971 972 973 974 975 976 977 978 979 980 981 982 983 984 985 986 987 988
v 989 990 -991 -992 -993 -994 -995 -996 -997 -998 -999 -1000 -1001 -1002 -1003
v -1004 1005 1006 1007 1008 1009 1010 1011 1012 1013 1014 1015 1016 1017 1018
v 1019 1020 1021 1022 1023 1024 1025 1026 1027 1028 1029 1030 1031 1032 1033
v 1034 1035 1036 1037 1038 1039 1040 1041 1042 1043 1044 1045 1046 1047 1048
v 1049 1050 1051 1052 1053 1054 1055 1056 1057 1058 1059 1060 1061 1062 1063
v 1064 -1065 -1066 -1067 -1068 -1069 -1070 -1071 -1072 -1073 -1074 -1075 -1076
v -1077 -1078 -1079 -1080 1081 1082 1083 1084 1085 1086 1087 1088 1089 1090
v 1091 1092 1093 1094 1095 1096 1097 1098 1099 1100 1101 1102 1103 1104 1105
v 1106 1107 1108 1109 1110 1111 1112 1113 1114 1115 1116 1117 1118 1119 1120
v 1121 1122 1123 1124 1125 1126 1127 1128 1129 1130 1131 1132 1133 1134 1135
v 1136 1137 1138 -1139 -1140 -1141 -1142 -1143 -1144 -1145 -1146 -1147 -1148
v -1149 -1150 -1151 -1152 -1153 -1154 -1155 -1156 1157 1158 1159 1160 1161
v 1162 1163 1164 1165 1166 1167 1168 1169 1170 1171 1172 1173 1174 1175 1176
v 1177 1178 1179 1180 1181 1182 1183 1184 1185 1186 1187 1188 1189 1190 1191
v 1192 1193 1194 1195 1196 1197 1198 1199 1200 1201 1202 1203 1204 1205 1206
v 1207 1208 1209 1210 1211 1212 -1213 -1214 -1215 -1216 -1217 -1218 -1219
v -1220 -1221 -1222 -1223 -1224 -1225 -1226 -1227 -1228 -1229 -1230 -1231
v -1232 -1233 -1234 1235 1236 1237 1238 1239 1240 1241 1242 1243 1244 1245
v 1246 1247 1248 1249 1250 1251 1252 1253 1254 1255 1256 1257 1258 1259 1260
v 1261 1262 1263 1264 1265 1266 1267 1268 1269 1270 1271 1272 1273 1274 1275
v 1276 1277 1278 1279 1280 1281 1282 1283 1284 1285 1286 -1287 -1288 -1289
v -1290 -1291 -1292 -1293 -1294 -1295 -1296 -1297 -1298 -1299 -1300 -1301
v -1302 -1303 -1304 -1305 -1306 -1307 -1308 -1309 1310 1311 1312 1313 1314
v 1315 1316 1317 1318 1319 1320 1321 1322 1323 1324 1325 1326 1327 1328 1329
v 1330 1331 1332 1333 1334 1335 1336 1337 1338 1339 1340 1341 1342 1343 1344
v 1345 1346 1347 1348 1349 1350 1351 1352 1353 1354 1355 1356 1357 1358 1359
v 1360 -1361 -1362 -1363 -1364 -1365 -1366 -1367 -1368 -1369 -1370 -1371 -1372
v -1373 -1374 -1375 -1376 -1377 -1378 -1379 -1380 -1381 -1382 -1383 -1384 1385
v 1386 1387 1388 1389 1390 1391 1392 1393 1394 1395 1396 1397 1398 1399 1400
v 1401 1402 1403 1404 1405 1406 1407 1408 1409 1410 1411 1412 1413 1414 1415
v 1416 1417 1418 1419 1420 1421 1422 1423 1424 1425 1426 1427 1428 1429 1430
v 1431 1432 1433 1434 -1435 -1436 -1437 -1438 -1439 -1440 -1441 -1442 -1443
v -1444 -1445 -1446 -1447 -1448 -1449 -1450 -1451 -1452 -1453 -1454 -1455
v -1456 -1457 -1458 -1459 -1460 -1461 -1462 -1463 1464 1465 1466 1467 1468
v 1469 1470 1471 1472 1473 1474 1475 1476 1477 1478 1479 1480 1481 1482 1483
v 1484 1485 1486 1487 1488 1489 1490 1491 1492 1493 1494 1495 1496 1497 1498
v 1499 1500 1501 1502 1503 1504 1505 1506 1507 1508 -1509 -1510 -1511 -1512
v -1513 -1514 -1515 -1516 -1517 -1518 -1519 -1520 -1521 -1522 -1523 -1524
v -1525 -1526 -1527 -1528 -1529 -1530 -1531 -1532 -1533 -1534 -1535 -1536
v -1537 -1538 -1539 -1540 -1541 -1542 1543 1544 1545 1546 1547 1548 1549 1550
v 1551 1552 1553 1554 1555 1556 1557 1558 1559 1560 1561 1562 1563 1564 1565
v 1566 1567 1568 1569 1570 1571 1572 1573 1574 1575 1576 1577 1578 1579 1580
v 1581 1582 -1583 -1584 -1585 -1586 -1587 -1588 -1589 -1590 -1591 -1592 -1593
v -1594 -1595 -1596 -1597 -1598 -1599 -1600 -1601 -1602 -1603 -1604 -1605
v -1606 -1607 -1608 -1609 -1610 -1611 -1612 -1613 -1614 -1615 -1616 -1617 1618
v 1619 1620 1621 1622 1623 1624 1625 1626 1627 1628 1629 1630 1631 1632 1633
v 1634 1635 1636 1637 1638 1639 1640 1641 1642 1643 1644 1645 1646 1647 1648
v 1649 1650 1651 1652 1653 1654 1655 1656 -1657 -1658 -1659 -1660 -1661 -1662
v -1663 -1664 -1665 -1666 -1667 -1668 -1669 -1670 -1671 -1672 -1673 -1674
v -1675 -1676 -1677 -1678 -1679 -1680 -1681 -1682 -1683 -1684 -1685 -1686
v -1687 -1688 -1689 -1690 -1691 -1692 -1693 -1694 -1695 -1696 1697 1698 1699
v 1700 1701 1702 1703 1704 1705 1706 1707 1708 1709 1710 1711 1712 1713 1714
v 1715 1716 1717 1718 1719 1720 1721 1722 1723 1724 1725 1726 1727 1728 1729
v 1730 -1731 -1732 -1733 -1734 -1735 -1736 -1737 -1738 -1739 -1740 -1741 -1742
v -1743 -1744 -1745 -1746 -1747 -1748 -1749 -1750 -1751 -1752 -1753 -1754
v -1755 -1756 -1757 -1758 -1759 -1760 -1761 -1762 -1763 -1764 -1765 -1766
v -1767 -1768 -1769 -1770 -1771 1772 1773 1774 1775 1776 1777 1778 1779 1780
v 1781 1782 1783 1784 1785 1786 1787 1788 1789 1790 1791 1792 1793 1794 1795
v 1796 1797 1798 1799 1800 1801 1802 1803 1804 -1805 -1806 -1807 -1808 -1809
v -1810 -1811 -1812 -1813 -1814 -1815 -1816 -1817 -1818 -1819 -1820 -1821
v -1822 -1823 -1824 -1825 -1826 -1827 -1828 -1829 -1830 -1831 -1832 -1833
v -1834 -1835 -1836 -1837 -1838 -1839 -1840 -1841 -1842 -1843 -1844 -1845
v -1846 -1847 -1848 -1849 -1850 -1851 1852 1853 1854 1855 1856 1857 1858 1859
v 1860 1861 1862 1863 1864 1865 1866 1867 1868 1869 1870 1871 1872 1873 1874
v 1875 1876 1877 1878 -1879 -1880 -1881 -1882 -1883 -1884 -1885 -1886 -1887
v -1888 -1889 -1890 -1891 -1892 -1893 -1894 -1895 -1896 -1897 -1898 -1899
v -1900 -1901 -1902 -1903 -1904 -1905 -1906 -1907 -1908 -1909 -1910 -1911
v -1912 -1913 -1914 -1915 -1916 -1917 -1918 -1919 -1920 -1921 -1922 -1923
v -1924 -1925 -1926 1927 1928 1929 1930 1931 1932 1933 1934 1935 1936 1937
v 1938 1939 1940 1941 1942 1943 1944 1945 1946 1947 1948 1949 1950 1951 1952
v -1953 -1954 -1955 -1956 -1957 -1958 -1959 -1960 -1961 -1962 -1963 -1964
v -1965 -1966 -1967 -1968 -1969 -1970 -1971 -1972 -1973 -1974 -1975 -1976
v -1977 -1978 -1979 -1980 -1981 -1982 -1983 -1984 -1985 -1986 -1987 -1988
v -1989 -1990 -1991 -1992 -1993 -1994 -1995 -1996 -1997 -1998 -1999 -2000
v -2001 2002 2003 2004 2005 2006 2007 2008 2009 2010 2011 2012 2013 2014 2015
v 2016 2017 2018 2019 2020 2021 2022 2023 2024 2025 2026 -2027 -2028 -2029
v -2030 -2031 -2032 -2033 -2034 -2035 -2036 -2037 -2038 -2039 -2040 -2041
v -2042 -2043 -2044 -2045 -2046 -2047 -2048 -2049 -2050 -2051 -2052 -2053
v -2054 -2055 -2056 -2057 -2058 -2059 -2060 -2061 -2062 -2063 -2064 -2065
v -2066 -2067 -2068 -2069 -2070 -2071 -2072 -2073 -2074 -2075 -2076 2077 2078
v 2079 2080 2081 2082 2083 2084 2085 2086 2087 2088 2089 2090 2091 2092 2093
v 2094 2095 2096 2097 2098 2099 2100 -2101 -2102 -2103 -2104 -2105 -2106 -2107
v -2108 -2109 -2110 -2111 -2112 -2113 -2114 -2115 -2116 -2117 -2118 -2119
v -2120 -2121 -2122 -2123 -2124 -2125 -2126 -2127 -2128 -2129 -2130 -2131
v -2132 -2133 -2134 -2135 -2136 -2137 -2138 -2139 -2140 -2141 -2142 -2143
v -2144 -2145 -2146 -2147 -2148 -2149 -2150 -2151 -2152 -2153 2154 2155 2156
v 2157 2158 2159 2160 2161 2162 2163 2164 2165 2166 2167 2168 2169 2170 2171
v 2172 2173 2174 -2175 -2176 -2177 -2178 -2179 -2180 -2181 -2182 -2183 -2184
v -2185 -2186 -2187 -2188 -2189 -2190 -2191 -2192 -2193 -2194 -2195 -2196
v -2197 -2198 -2199 -2200 -2201 -2202 -2203 -2204 -2205 -2206 -2207 -2208
v -2209 -2210 -2211 -2212 -2213 -2214 -2215 -2216 -2217 -2218 -2219 -2220
v -2221 -2222 -2223 -2224 -2225 -2226 -2227 -2228 -2229 -2230 -2231 2232 2233
v 2234 2235 2236 2237 2238 2239 2240 2241 2242 2243 2244 2245 2246 2247 2248
v -2249 -2250 -2251 -2252 -2253 -2254 -2255 -2256 -2257 -2258 -2259 -2260
v -2261 -2262 -2263 -2264 -2265 -2266 -2267 -2268 -2269 -2270 -2271 -2272
v -2273 -2274 -2275 -2276 -2277 -2278 -2279 -2280 -2281 -2282 -2283 -2284
v -2285 -2286 -2287 -2288 -2289 -2290 -2291 -2292 -2293 -2294 -2295 -2296
v -2297 -2298 -2299 -2300 -2301 -2302 -2303 -2304 -2305 -2306 -2307 2308 2309
v 2310 2311 2312 2313 2314 2315 2316 2317 2318 2319 2320 2321 2322 -2323 -2324
v -2325 -2326 -2327 -2328 -2329 -2330 -2331 -2332 -2333 -2334 -2335 -2336
v -2337 -2338 -2339 -2340 -2341 -2342 -2343 -2344 -2345 -2346 -2347 -2348
v -2349 -2350 -2351 -2352 -2353 -2354 -2355 -2356 -2357 -2358 -2359 -2360
v -2361 -2362 -2363 -2364 -2365 -2366 -2367 -2368 -2369 -2370 -2371 -2372
v -2373 -2374 -2375 -2376 -2377 -2378 -2379 -2380 -2381 -2382 -2383 -2384
v -2385 -2386 2387 2388 2389 2390 2391 2392 2393 2394 2395 2396 -2397 -2398
v -2399 -2400 -2401 -2402 -2403 -2404 -2405 -2406 -2407 -2408 -2409 -2410
v -2411 -2412 -2413 -2414 -2415 -2416 -2417 -2418 -2419 -2420 -2421 -2422
v -2423 -2424 -2425 -2426 -2427 -2428 -2429 -2430 -2431 -2432 -2433 -2434
v -2435 -2436 -2437 -2438 -2439 -2440 -2441 -2442 -2443 -2444 -2445 -2446
v -2447 -2448 -2449 -2450 -2451 -2452 -2453 -2454 -2455 -2456 -2457 -2458
v -2459 -2460 -2461 -2462 -2463 2464 2465 2466 2467 2468 2469 2470 -2471 -2472
v -2473 -2474 -2475 -2476 -2477 -2478 -2479 -2480 -2481 -2482 -2483 -2484
v -2485 -2486 -2487 -2488 -2489 -2490 -2491 -2492 -2493 -2494 -2495 -2496
v -2497 -2498 -2499 -2500 -2501 -2502 -2503 -2504 -2505 -2506 -2507 -2508
v -2509 -2510 -2511 -2512 -2513 -2514 -2515 -2516 -2517 -2518 -2519 -2520
v -2521 -2522 -2523 -2524 -2525 -2526 -2527 -2528 -2529 -2530 -2531 -2532
v -2533 -2534 -2535 -2536 -2537 -2538 2539 2540 2541 2542 2543 2544 -2545
v -2546 -2547 -2548 -2549 -2550 -2551 -2552 -2553 -2554 -2555 -2556 -2557
v -2558 -2559 -2560 -2561 -2562 -2563 -2564 -2565 -2566 -2567 -2568 -2569
v -2570 -2571 -2572 -2573 -2574 -2575 -2576 -2577 -2578 -2579 -2580 -2581
v -2582 -2583 -2584 -2585 -2586 -2587 -2588 -2589 -2590 -2591 -2592 -2593
v -2594 -2595 -2596 -2597 -2598 -2599 -2600 -2601 -2602 -2603 -2604 -2605
v -2606 -2607 -2608 -2609 -2610 -2611 -2612 -2613 -2614 -2615 -2616 2617 2618
v -2619 -2620 -2621 -2622 -2623 -2624 -2625 -2626 -2627 -2628 -2629 -2630
v -2631 -2632 -2633 -2634 -2635 -2636 -2637 -2638 -2639 -2640 -2641 -2642
v -2643 -2644 -2645 -2646 -2647 -2648 -2649 -2650 -2651 -2652 -2653 -2654
v -2655 -2656 -2657 -2658 -2659 -2660 -2661 -2662 -2663 -2664 -2665 -2666
v -2667 -2668 -2669 -2670 -2671 -2672 -2673 -2674 -2675 -2676 -2677 -2678
v -2679 -2680 -2681 -2682 -2683 -2684 -2685 -2686 -2687 -2688 -2689 -2690
v -2691 -2692 0
c 
c --- [ run-time profiling ] -------------------------------------------------
c 
c process time taken by individual solving procedures
c (percentage relative to process time for solving)
c 
c        45.60   97.34% search
c        23.93   51.08% unstable
c        20.79   44.39% stable
c         1.25    2.66% simplify
c         0.87    1.87% walk
c         0.55    1.18% subsume
c         0.31    0.66% vivify
c         0.13    0.28% probe
c         0.08    0.18% elim
c         0.05    0.11% ternary
c         0.00    0.01% parse
c         0.00    0.00% lucky
c   =================================
c        46.85   99.99% solve
c 
c last line shows process time for solving
c (percentage relative to total process time)
c 
c --- [ statistics ] ---------------------------------------------------------
c 
c chronological:            131700        20.90 %  of conflicts
c conflicts:                630065     13449.54    per second
c decisions:               1140594     24347.43    per second
c eliminated:                 2051        76.19 %  of all variables
c fixed:                        76         2.82 %  of all variables
c learned:                  617991        98.08 %  per conflict
c learned_lits:           23772699       100.00 %  learned literals
c minimized:                     0         0.00 %  learned literals
c shrunken:                7231125        30.42 %  learned literals
c minishrunken:            2411954        10.15 %  learned literals
c propagations:           53741531         1.15 M  per second
c reduced:                  498497        79.12 %  per conflict
c rephased:                     35     18001.86    interval
c restarts:                  23253        27.10    interval
c stabilizing:                   5        45.88 %  of conflicts
c subsumed:                  72187         5.68 %  of all clauses
c strengthened:               6067         0.48 %  of all clauses
c ternary:                       5         0.01 %  of resolved
c vivified:                     76         0.01 %  of all clauses
c walked:                       11     57278.64    interval
c weakened:                   8779         2.91    average size
c 
c seconds are measured in process time for solving
c 
c --- [ resources ] ----------------------------------------------------------
c 
c total process time since initialization:        46.85    seconds
c total real time since initialization:           46.86    seconds
c maximum resident set size of process:           21.41    MB
c 
c --- [ shutting down ] ------------------------------------------------------
c 
c exit 10
